19 20

11 12 15 4 1 8 10 10 18 9 13 13
9 13 3 6 12 14 14 13
7 11 18 11 16 13 20 3 12 15 1 14
10 15 11 7 14 10 12 14 8 14 2 13
8 2 6 5 1 10 9 6 4 14
8 10 19 4 4 7 6 8
15 4 12 12 1 13 4 8 16 11 9 10
3 14 16 6 7 6 5 9
2 6 11 4 4 13 3 3 19 7 15 15
3 11 19 10 2 2 16 10 4 5
18 15 20 9 6 15 13 7 3 12 12 5
13 15 6 13 17 13 18 5
7 15 10 5 8 5 9 14
2 3 19 2 12 13 1 12 17 10
9 5 11 5 5 12 16 11
12 11 18 3 4 13 8 14
6 11 17 12 14 9 11 8 3 6
3 11 1 8 11 2 20 6 17 6
18 3 17 4 7 11 16 7
